p edge 36 180
e 1 6
e 1 8
e 1 10
e 1 20
e 1 35
e 2 8
e 2 11
e 2 13
e 2 15
e 2 34
e 3 8
e 3 15
e 3 23
e 3 24
e 3 32
e 4 17
e 4 19
e 4 25
e 4 29
e 4 36
e 5 9
e 5 16
e 5 27
e 5 27
e 5 34
e 6 19
e 6 20
e 6 20
e 6 27
e 6 32
e 7 2
e 7 4
e 7 6
e 7 19
e 7 31
e 8 10
e 8 17
e 8 32
e 8 34
e 8 35
e 9 10
e 9 12
e 9 14
e 9 15
e 9 33
e 10 11
e 10 12
e 10 21
e 10 30
e 10 31
e 11 9
e 11 9
e 11 10
e 11 15
e 11 20
e 12 5
e 12 10
e 12 14
e 12 15
e 12 34
e 13 16
e 13 18
e 13 21
e 13 33
e 13 35
e 14 1
e 14 19
e 14 22
e 14 28
e 14 30
e 15 3
e 15 3
e 15 10
e 15 16
e 15 33
e 16 8
e 16 15
e 16 25
e 16 25
e 16 27
e 17 12
e 17 13
e 17 16
e 17 27
e 17 33
e 18 1
e 18 9
e 18 20
e 18 25
e 18 25
e 19 12
e 19 20
e 19 29
e 19 31
e 19 35
e 20 3
e 20 11
e 20 11
e 20 28
e 20 36
e 21 1
e 21 3
e 21 6
e 21 22
e 21 34
e 22 17
e 22 21
e 22 21
e 22 26
e 22 27
e 23 2
e 23 6
e 23 24
e 23 29
e 23 34
e 24 5
e 24 14
e 24 28
e 24 34
e 24 34
e 25 10
e 25 12
e 25 12
e 25 22
e 25 32
e 26 4
e 26 6
e 26 7
e 26 17
e 26 22
e 27 6
e 27 12
e 27 21
e 27 23
e 27 24
e 28 4
e 28 4
e 28 18
e 28 21
e 28 29
e 29 1
e 29 12
e 29 12
e 29 17
e 29 19
e 30 5
e 30 12
e 30 15
e 30 22
e 30 25
e 31 2
e 31 3
e 31 12
e 31 14
e 31 16
e 32 2
e 32 9
e 32 12
e 32 17
e 32 33
e 33 2
e 33 5
e 33 5
e 33 15
e 33 27
e 34 9
e 34 16
e 34 24
e 34 25
e 34 35
e 35 14
e 35 17
e 35 28
e 35 28
e 35 36
e 36 5
e 36 12
e 36 18
e 36 24
e 36 29
